maximize
OBJ:100x0 + 100x1 + 100x2 + 100x3 + 100x4 + 100x5 + 100x6 + 100x7 + 100x8 + 100x9 + 100x10 + 100x11 + 100x12 + 100x13 + 100x14 + 100x15 + 100x16 + 100x17 + 100x18 + 100x19 + 100x20 + 100x21 + 100x22 + 100x23 + 100x24 + 100x25 + 100x26 + 100x27 + 100x28 + 100x29 + 100x30 + 100x31 + 100x32 + 100x33 + 100x34 + 100x35 + 100x36 + 100x37 + 100x38 + 100x39 + 100x40 + 100x41 + 100x42 + 100x43 + 100x44 + 100x45 + 100x46 + 100x47 + 100x48 + 100x49 + 100x50 + 100x51 + 100x52 + 100x53 + 100x54 + 100x55 + 100x56 + 100x57 + 100x58 + 100x59 + 100x60 + 100x61 + 100x62 + 100x63 + 100x64 + 100x65 + 100x66 - y7_17 - y36_53 - y26_39 - y28_58 - y5_65 - y29_32 - y29_41 - y8_18 - y48_54 - y6_48 - y11_14 - y29_50 - y48_63 - y0_23 - y11_23 - y40_59 - y21_55 - y21_64 - y10_27 - y33_38 - y2_32 - y10_45 - y2_50 - y10_63 - y22_28 - y51_64 - y2_59 - y3_33 - y22_46 - y13_65 - y3_42 - y15_16 - y7_30 - y36_66 - y47_66 - y28_62 - y29_54 - y6_61 - y40_63 - y10_22 - y33_42 - y44_51 - y3_10 - y10_58 - y43_55 - y22_32 - y13_51 - y32_64 - y24_60 - y16_65 - y17_48 - y9_44 - y9_53 - y28_66 - y21_45 - y21_54 - y2_13 - y39_62 - y62_64 - y2_22 - y10_35 - y10_44 - y3_14 - y32_50 - y24_46 - y3_23 - y14_23 - y43_59 - y1_62 - y35_64 - y16_60 - y36_38 - y17_34 - y28_34 - y9_30 - y17_43 - y28_43 - y28_52 - y28_61 - y9_57 - y29_35 - y21_31 - y40_44 - y21_40 - y39_48 - y2_8 - y20_53 - y31_53 - y39_66 - y54_55 - y25_28 - y12_58 - y32_36 - y3_9 - y51_58 - y35_41 - y3_18 - y14_18 - y32_54 - y1_48 - y13_50 - y1_57 - y1_66 - y16_64 - y17_29 - y9_25 - y36_51 - y9_34 - y6_10 - y50_53 - y5_63 - y29_30 - y9_61 - y21_26 - y27_60 - y8_65 - y19_65 - y10_25 - y2_21 - y12_53 - y2_30 - y31_66 - y13_36 - y35_36 - y1_43 - y13_45 - y35_45 - y16_41 - y43_58 - y1_52 - y13_54 - y1_61 - y13_63 - y24_63 - y16_59 - y17_24 - y36_37 - y9_20 - y50_57 - y8_51 - y21_30 - y8_60 - y42_62 - y0_56 - y11_56 - y11_65 - y39_47 - y12_39 - y23_39 - y2_16 - y20_52 - y13_22 - y4_53 - y23_66 - y24_31 - y16_27 - y16_36 - y5_8 - y1_56 - y57_64 - y49_60 - y5_35 - y7_63 - y6_18 - y50_52 - y8_46 - y42_48 - y27_59 - y8_64 - y30_64 - y0_60 - y12_25 - y39_42 - y20_38 - y23_34 - y2_11 - y12_52 - y13_17 - y4_48 - y23_61 - y4_57 - y13_35 - y24_35 - y13_44 - y9_10 - y38_46 - y17_23 - y9_19 - y38_55 - y15_62 - y5_39 - y27_36 - y30_41 - y11_37 - y19_50 - y30_50 - y27_63 - y8_59 - y19_59 - y42_61 - y20_33 - y31_33 - y4_34 - y12_47 - y1_10 - y53_57 - y1_28 - y13_30 - y4_61 - y22_60 - y24_30 - y45_62 - y16_35 - y3_65 - y14_65 - y38_41 - y5_16 - y26_48 - y5_25 - y15_57 - y49_59 - y18_53 - y26_66 - y50_51 - y0_32 - y8_54 - y19_54 - y30_63 - y60_64 - y11_59 - y20_37 - y4_38 - y4_47 - y37_44 - y16_21 - y1_32 - y56_66 - y26_34 - y38_45 - y57_58 - y15_52 - y38_54 - y49_54 - y18_48 - y49_63 - y19_22 - y11_18 - y18_66 - y30_31 - y27_44 - y8_40 - y11_36 - y4_6 - y20_32 - y52_64 - y4_24 - y12_37 - y25_56 - y1_9 - y53_56 - y3_46 - y56_61 - y3_55 - y14_55 - y37_57 - y5_6 - y15_38 - y26_38 - y7_34 - y15_47 - y38_49 - y26_56 - y7_52 - y18_52 - y0_13 - y48_62 - y8_35 - y19_44 - y21_63 - y0_40 - y33_46 - y10_53 - y25_51 - y10_62 - y1_13 - y45_47 - y3_41 - y37_43 - y14_50 - y15_33 - y26_33 - y18_29 - y15_42 - y18_38 - y15_51 - y7_47 - y0_8 - y7_56 - y8_21 - y18_56 - y11_17 - y40_53 - y6_60 - y40_62 - y63_64 - y41_45 - y4_5 - y52_54 - y4_14 - y33_50 - y41_63 - y2_44 - y44_59 - y2_53 - y25_55 - y2_62 - y25_64 - y3_36 - y37_38 - y22_58 - y15_19 - y55_64 - y7_24 - y36_60 - y26_37 - y59_62 - y18_33 - y17_65 - y48_52 - y0_12 - y6_55 - y11_21 - y40_57 - y6_64 - y40_66 - y33_36 - y41_49 - y25_50 - y25_59 - y22_35 - y3_31 - y36_46 - y36_55 - y47_55 - y7_37 - y21_48 - y6_59 - y21_57 - y10_20 - y10_47 - y10_56 - y51_57 - y25_54 - y3_17 - y32_53 - y22_30 - y2_61 - y3_26 - y14_26 - y22_39 - y32_62 - y14_44 - y16_63 - y15_18 - y59_61 - y5_53 - y28_55 - y9_60 - y6_36 - y40_56 - y2_20 - y25_31 - y10_42 - y2_47 - y3_12 - y32_48 - y22_25 - y13_53 - y1_60 - y7_9 - y28_41 - y9_37 - y5_48 - y9_46 - y5_57 - y17_59 - y5_66 - y6_31 - y29_33 - y40_42 - y29_51 - y2_6 - y39_64 - y25_26 - y10_37 - y24_39 - y35_39 - y32_52 - y13_48 - y3_25 - y43_61 - y13_57 - y24_66 - y36_40 - y9_23 - y28_36 - y47_49 - y17_45 - y6_8 - y28_54 - y58_64 - y9_59 - y6_35 - y42_65 - y2_10 - y10_23 - y2_19 - y20_55 - y54_57 - y2_28 - y20_64 - y12_60 - y23_60 - y24_34 - y43_47 - y24_43 - y43_56 - y16_39 - y32_65 - y43_65 - y1_59 - y16_57 - y5_20 - y16_66 - y17_31 - y9_27 - y50_55 - y42_51 - y50_64 - y39_45 - y2_5 - y2_14 - y20_50 - y31_50 - y23_46 - y39_63 - y20_59 - y4_42 - y4_51 - y4_60 - y24_38 - y35_38 - y16_43 - y9_13 - y16_61 - y9_22 - y49_58 - y5_33 - y15_65 - y19_53 - y42_55 - y27_66 - y0_49 - y19_62 - y42_64 - y0_58 - y39_58 - y12_41 - y2_18 - y13_15 - y53_60 - y16_29 - y45_65 - y13_42 - y35_42 - y1_49 - y16_47 - y5_10 - y1_58 - y46_48 - y5_19 - y38_53 - y49_53 - y9_26 - y15_60 - y5_37 - y6_20 - y8_39 - y27_52 - y50_54 - y27_61 - y11_44 - y19_66 - y30_66 - y39_44 - y2_4 - y23_36 - y12_45 - y23_45 - y23_54 - y23_63 - y4_59 - y16_24 - y56_60 - y16_33 - y1_44 - y46_61 - y49_66 - y27_29 - y19_34 - y30_52 - y42_54 - y0_48 - y11_57 - y11_66 - y23_40 - y1_3 - y4_36 - y1_12 - y13_14 - y4_45 - y34_46 - y53_59 - y45_55 - y37_51 - y5_9 - y26_41 - y38_43 - y5_18 - y57_65 - y7_46 - y8_20 - y7_64 - y19_29 - y0_25 - y11_25 - y27_51 - y8_47 - y19_56 - y12_17 - y20_30 - y60_66 - y41_62 - y4_22 - y12_35 - y4_31 - y10_65 - y23_44 - y1_7 - y25_63 - y13_18 - y53_63 - y56_59 - y3_53 - y37_55 - y14_62 - y37_64 - y15_36 - y5_13 - y7_32 - y26_45 - y7_50 - y19_24 - y19_33 - y30_33 - y0_29 - y40_65 - y8_42 - y19_42 - y60_61 - y4_17 - y23_30 - y10_60 - y25_58 - y22_34 - y1_11 - y22_43 - y53_58 - y14_39 - y37_41 - y22_52 - y37_50 - y37_59 - y15_22 - y37_49 - y18_36 - y26_49 - y15_58 - y8_19 - y30_37 - y21_56 - y12_16 - y41_52 - y4_12 - y33_48 - y4_21 - y33_66 - y44_66 - y1_6 - y2_60 - y22_38 - y34_49 - y45_49 - y56_58 - y55_62 - y7_22 - y18_22 - y18_49 - y48_50 - y0_10 - y19_23 - y48_59 - y29_55 - y40_55 - y0_28 - y6_62 - y11_28 - y63_66 - y41_47 - y25_30 - y4_7 - y41_56 - y25_39 - y52_56 - y41_65 - y10_59 - y22_24 - y33_61 - y14_20 - y2_64 - y34_44 - y14_47
 Subject to
C1: x0+x1 <=1 
C2: x0+x2 <=1 
C3: x0+x4 <=1 
C4: x0+x6 <=1 
C5: x0+x7 <=1 
C6: x0+x8-y0_8 <=1 
C7: x0+x9 <=1 
C8: x0+x10-y0_10 <=1 
C9: x0+x11 <=1 
C10: x0+x12-y0_12 <=1 
C11: x0+x13-y0_13 <=1 
C12: x0+x14 <=1 
C13: x0+x17 <=1 
C14: x0+x20 <=1 
C15: x0+x21 <=1 
C16: x0+x22 <=1 
C17: x0+x23-y0_23 <=1 
C18: x0+x25-y0_25 <=1 
C19: x0+x26 <=1 
C20: x0+x28-y0_28 <=1 
C21: x0+x29-y0_29 <=1 
C22: x0+x32-y0_32 <=1 
C23: x0+x33 <=1 
C24: x0+x35 <=1 
C25: x0+x36 <=1 
C26: x0+x37 <=1 
C27: x0+x38 <=1 
C28: x0+x39 <=1 
C29: x0+x40-y0_40 <=1 
C30: x0+x42 <=1 
C31: x0+x43 <=1 
C32: x0+x44 <=1 
C33: x0+x45 <=1 
C34: x0+x47 <=1 
C35: x0+x48-y0_48 <=1 
C36: x0+x49-y0_49 <=1 
C37: x0+x52 <=1 
C38: x0+x53 <=1 
C39: x0+x56-y0_56 <=1 
C40: x0+x57 <=1 
C41: x0+x58-y0_58 <=1 
C42: x0+x60-y0_60 <=1 
C43: x0+x64 <=1 
C44: x1+x2 <=1 
C45: x1+x3-y1_3 <=1 
C46: x1+x6-y1_6 <=1 
C47: x1+x7-y1_7 <=1 
C48: x1+x8 <=1 
C49: x1+x9-y1_9 <=1 
C50: x1+x10-y1_10 <=1 
C51: x1+x11-y1_11 <=1 
C52: x1+x12-y1_12 <=1 
C53: x1+x13-y1_13 <=1 
C54: x1+x16 <=1 
C55: x1+x20 <=1 
C56: x1+x21 <=1 
C57: x1+x28-y1_28 <=1 
C58: x1+x29 <=1 
C59: x1+x31 <=1 
C60: x1+x32-y1_32 <=1 
C61: x1+x34 <=1 
C62: x1+x35 <=1 
C63: x1+x36 <=1 
C64: x1+x40 <=1 
C65: x1+x43-y1_43 <=1 
C66: x1+x44-y1_44 <=1 
C67: x1+x45 <=1 
C68: x1+x46 <=1 
C69: x1+x48-y1_48 <=1 
C70: x1+x49-y1_49 <=1 
C71: x1+x51 <=1 
C72: x1+x52-y1_52 <=1 
C73: x1+x54 <=1 
C74: x1+x55 <=1 
C75: x1+x56-y1_56 <=1 
C76: x1+x57-y1_57 <=1 
C77: x1+x58-y1_58 <=1 
C78: x1+x59-y1_59 <=1 
C79: x1+x60-y1_60 <=1 
C80: x1+x61-y1_61 <=1 
C81: x1+x62-y1_62 <=1 
C82: x1+x64 <=1 
C83: x1+x66-y1_66 <=1 
C84: x2+x4-y2_4 <=1 
C85: x2+x5-y2_5 <=1 
C86: x2+x6-y2_6 <=1 
C87: x2+x7 <=1 
C88: x2+x8-y2_8 <=1 
C89: x2+x9 <=1 
C90: x2+x10-y2_10 <=1 
C91: x2+x11-y2_11 <=1 
C92: x2+x12 <=1 
C93: x2+x13-y2_13 <=1 
C94: x2+x14-y2_14 <=1 
C95: x2+x16-y2_16 <=1 
C96: x2+x17 <=1 
C97: x2+x18-y2_18 <=1 
C98: x2+x19-y2_19 <=1 
C99: x2+x20-y2_20 <=1 
C100: x2+x21-y2_21 <=1 
C101: x2+x22-y2_22 <=1 
C102: x2+x24 <=1 
C103: x2+x27 <=1 
C104: x2+x28-y2_28 <=1 
C105: x2+x29 <=1 
C106: x2+x30-y2_30 <=1 
C107: x2+x31 <=1 
C108: x2+x32-y2_32 <=1 
C109: x2+x39 <=1 
C110: x2+x41 <=1 
C111: x2+x43 <=1 
C112: x2+x44-y2_44 <=1 
C113: x2+x45 <=1 
C114: x2+x47-y2_47 <=1 
C115: x2+x48 <=1 
C116: x2+x50-y2_50 <=1 
C117: x2+x51 <=1 
C118: x2+x52 <=1 
C119: x2+x53-y2_53 <=1 
C120: x2+x56 <=1 
C121: x2+x58 <=1 
C122: x2+x59-y2_59 <=1 
C123: x2+x60-y2_60 <=1 
C124: x2+x61-y2_61 <=1 
C125: x2+x62-y2_62 <=1 
C126: x2+x63 <=1 
C127: x2+x64-y2_64 <=1 
C128: x2+x65 <=1 
C129: x2+x66 <=1 
C130: x3+x4 <=1 
C131: x3+x7 <=1 
C132: x3+x9-y3_9 <=1 
C133: x3+x10-y3_10 <=1 
C134: x3+x11 <=1 
C135: x3+x12-y3_12 <=1 
C136: x3+x13 <=1 
C137: x3+x14-y3_14 <=1 
C138: x3+x15 <=1 
C139: x3+x16 <=1 
C140: x3+x17-y3_17 <=1 
C141: x3+x18-y3_18 <=1 
C142: x3+x19 <=1 
C143: x3+x21 <=1 
C144: x3+x22 <=1 
C145: x3+x23-y3_23 <=1 
C146: x3+x25-y3_25 <=1 
C147: x3+x26-y3_26 <=1 
C148: x3+x29 <=1 
C149: x3+x31-y3_31 <=1 
C150: x3+x33-y3_33 <=1 
C151: x3+x34 <=1 
C152: x3+x36-y3_36 <=1 
C153: x3+x38 <=1 
C154: x3+x39 <=1 
C155: x3+x41-y3_41 <=1 
C156: x3+x42-y3_42 <=1 
C157: x3+x43 <=1 
C158: x3+x44 <=1 
C159: x3+x45 <=1 
C160: x3+x46-y3_46 <=1 
C161: x3+x49 <=1 
C162: x3+x53-y3_53 <=1 
C163: x3+x55-y3_55 <=1 
C164: x3+x58 <=1 
C165: x3+x59 <=1 
C166: x3+x61 <=1 
C167: x3+x62 <=1 
C168: x3+x63 <=1 
C169: x3+x64 <=1 
C170: x3+x65-y3_65 <=1 
C171: x4+x5-y4_5 <=1 
C172: x4+x6-y4_6 <=1 
C173: x4+x7-y4_7 <=1 
C174: x4+x9 <=1 
C175: x4+x12-y4_12 <=1 
C176: x4+x14-y4_14 <=1 
C177: x4+x15 <=1 
C178: x4+x17-y4_17 <=1 
C179: x4+x21-y4_21 <=1 
C180: x4+x22-y4_22 <=1 
C181: x4+x24-y4_24 <=1 
C182: x4+x25 <=1 
C183: x4+x29 <=1 
C184: x4+x31-y4_31 <=1 
C185: x4+x33 <=1 
C186: x4+x34-y4_34 <=1 
C187: x4+x36-y4_36 <=1 
C188: x4+x38-y4_38 <=1 
C189: x4+x39 <=1 
C190: x4+x42-y4_42 <=1 
C191: x4+x45-y4_45 <=1 
C192: x4+x47-y4_47 <=1 
C193: x4+x48-y4_48 <=1 
C194: x4+x49 <=1 
C195: x4+x50 <=1 
C196: x4+x51-y4_51 <=1 
C197: x4+x53-y4_53 <=1 
C198: x4+x55 <=1 
C199: x4+x57-y4_57 <=1 
C200: x4+x59-y4_59 <=1 
C201: x4+x60-y4_60 <=1 
C202: x4+x61-y4_61 <=1 
C203: x4+x63 <=1 
C204: x4+x66 <=1 
C205: x5+x6-y5_6 <=1 
C206: x5+x8-y5_8 <=1 
C207: x5+x9-y5_9 <=1 
C208: x5+x10-y5_10 <=1 
C209: x5+x11 <=1 
C210: x5+x13-y5_13 <=1 
C211: x5+x14 <=1 
C212: x5+x15 <=1 
C213: x5+x16-y5_16 <=1 
C214: x5+x18-y5_18 <=1 
C215: x5+x19-y5_19 <=1 
C216: x5+x20-y5_20 <=1 
C217: x5+x22 <=1 
C218: x5+x25-y5_25 <=1 
C219: x5+x26 <=1 
C220: x5+x28 <=1 
C221: x5+x30 <=1 
C222: x5+x31 <=1 
C223: x5+x33-y5_33 <=1 
C224: x5+x35-y5_35 <=1 
C225: x5+x36 <=1 
C226: x5+x37-y5_37 <=1 
C227: x5+x39-y5_39 <=1 
C228: x5+x46 <=1 
C229: x5+x47 <=1 
C230: x5+x48-y5_48 <=1 
C231: x5+x49 <=1 
C232: x5+x53-y5_53 <=1 
C233: x5+x55 <=1 
C234: x5+x56 <=1 
C235: x5+x57-y5_57 <=1 
C236: x5+x60 <=1 
C237: x5+x63-y5_63 <=1 
C238: x5+x64 <=1 
C239: x5+x65-y5_65 <=1 
C240: x5+x66-y5_66 <=1 
C241: x6+x7 <=1 
C242: x6+x8-y6_8 <=1 
C243: x6+x10-y6_10 <=1 
C244: x6+x12 <=1 
C245: x6+x15 <=1 
C246: x6+x16 <=1 
C247: x6+x17 <=1 
C248: x6+x18-y6_18 <=1 
C249: x6+x19 <=1 
C250: x6+x20-y6_20 <=1 
C251: x6+x22 <=1 
C252: x6+x24 <=1 
C253: x6+x25 <=1 
C254: x6+x29 <=1 
C255: x6+x31-y6_31 <=1 
C256: x6+x33 <=1 
C257: x6+x35-y6_35 <=1 
C258: x6+x36-y6_36 <=1 
C259: x6+x40 <=1 
C260: x6+x42 <=1 
C261: x6+x46 <=1 
C262: x6+x47 <=1 
C263: x6+x48-y6_48 <=1 
C264: x6+x53 <=1 
C265: x6+x54 <=1 
C266: x6+x55-y6_55 <=1 
C267: x6+x59-y6_59 <=1 
C268: x6+x60-y6_60 <=1 
C269: x6+x61-y6_61 <=1 
C270: x6+x62-y6_62 <=1 
C271: x6+x64-y6_64 <=1 
C272: x6+x65 <=1 
C273: x6+x66 <=1 
C274: x7+x8 <=1 
C275: x7+x9-y7_9 <=1 
C276: x7+x13 <=1 
C277: x7+x17-y7_17 <=1 
C278: x7+x18 <=1 
C279: x7+x22-y7_22 <=1 
C280: x7+x24-y7_24 <=1 
C281: x7+x25 <=1 
C282: x7+x27 <=1 
C283: x7+x29 <=1 
C284: x7+x30-y7_30 <=1 
C285: x7+x31 <=1 
C286: x7+x32-y7_32 <=1 
C287: x7+x34-y7_34 <=1 
C288: x7+x37-y7_37 <=1 
C289: x7+x39 <=1 
C290: x7+x40 <=1 
C291: x7+x45 <=1 
C292: x7+x46-y7_46 <=1 
C293: x7+x47-y7_47 <=1 
C294: x7+x48 <=1 
C295: x7+x49 <=1 
C296: x7+x50-y7_50 <=1 
C297: x7+x51 <=1 
C298: x7+x52-y7_52 <=1 
C299: x7+x56-y7_56 <=1 
C300: x7+x62 <=1 
C301: x7+x63-y7_63 <=1 
C302: x7+x64-y7_64 <=1 
C303: x8+x10 <=1 
C304: x8+x13 <=1 
C305: x8+x14 <=1 
C306: x8+x15 <=1 
C307: x8+x17 <=1 
C308: x8+x18-y8_18 <=1 
C309: x8+x19-y8_19 <=1 
C310: x8+x20-y8_20 <=1 
C311: x8+x21-y8_21 <=1 
C312: x8+x23 <=1 
C313: x8+x25 <=1 
C314: x8+x30 <=1 
C315: x8+x32 <=1 
C316: x8+x35-y8_35 <=1 
C317: x8+x37 <=1 
C318: x8+x39-y8_39 <=1 
C319: x8+x40-y8_40 <=1 
C320: x8+x41 <=1 
C321: x8+x42-y8_42 <=1 
C322: x8+x43 <=1 
C323: x8+x45 <=1 
C324: x8+x46-y8_46 <=1 
C325: x8+x47-y8_47 <=1 
C326: x8+x49 <=1 
C327: x8+x51-y8_51 <=1 
C328: x8+x52 <=1 
C329: x8+x54-y8_54 <=1 
C330: x8+x59-y8_59 <=1 
C331: x8+x60-y8_60 <=1 
C332: x8+x62 <=1 
C333: x8+x63 <=1 
C334: x8+x64-y8_64 <=1 
C335: x8+x65-y8_65 <=1 
C336: x8+x66 <=1 
C337: x9+x10-y9_10 <=1 
C338: x9+x11 <=1 
C339: x9+x13-y9_13 <=1 
C340: x9+x14 <=1 
C341: x9+x16 <=1 
C342: x9+x19-y9_19 <=1 
C343: x9+x20-y9_20 <=1 
C344: x9+x22-y9_22 <=1 
C345: x9+x23-y9_23 <=1 
C346: x9+x25-y9_25 <=1 
C347: x9+x26-y9_26 <=1 
C348: x9+x27-y9_27 <=1 
C349: x9+x28 <=1 
C350: x9+x30-y9_30 <=1 
C351: x9+x31 <=1 
C352: x9+x32 <=1 
C353: x9+x34-y9_34 <=1 
C354: x9+x35 <=1 
C355: x9+x37-y9_37 <=1 
C356: x9+x42 <=1 
C357: x9+x44-y9_44 <=1 
C358: x9+x45 <=1 
C359: x9+x46-y9_46 <=1 
C360: x9+x47 <=1 
C361: x9+x49 <=1 
C362: x9+x52 <=1 
C363: x9+x53-y9_53 <=1 
C364: x9+x56 <=1 
C365: x9+x57-y9_57 <=1 
C366: x9+x59-y9_59 <=1 
C367: x9+x60-y9_60 <=1 
C368: x9+x61-y9_61 <=1 
C369: x9+x62 <=1 
C370: x9+x63 <=1 
C371: x9+x64 <=1 
C372: x9+x65 <=1 
C373: x10+x11 <=1 
C374: x10+x16 <=1 
C375: x10+x18 <=1 
C376: x10+x19 <=1 
C377: x10+x20-y10_20 <=1 
C378: x10+x22-y10_22 <=1 
C379: x10+x23-y10_23 <=1 
C380: x10+x25-y10_25 <=1 
C381: x10+x27-y10_27 <=1 
C382: x10+x29 <=1 
C383: x10+x31 <=1 
C384: x10+x35-y10_35 <=1 
C385: x10+x37-y10_37 <=1 
C386: x10+x39 <=1 
C387: x10+x42-y10_42 <=1 
C388: x10+x43 <=1 
C389: x10+x44-y10_44 <=1 
C390: x10+x45-y10_45 <=1 
C391: x10+x47-y10_47 <=1 
C392: x10+x53-y10_53 <=1 
C393: x10+x54 <=1 
C394: x10+x56-y10_56 <=1 
C395: x10+x58-y10_58 <=1 
C396: x10+x59-y10_59 <=1 
C397: x10+x60-y10_60 <=1 
C398: x10+x62-y10_62 <=1 
C399: x10+x63-y10_63 <=1 
C400: x10+x64 <=1 
C401: x10+x65-y10_65 <=1 
C402: x11+x14-y11_14 <=1 
C403: x11+x15 <=1 
C404: x11+x17-y11_17 <=1 
C405: x11+x18-y11_18 <=1 
C406: x11+x19 <=1 
C407: x11+x21-y11_21 <=1 
C408: x11+x22 <=1 
C409: x11+x23-y11_23 <=1 
C410: x11+x24 <=1 
C411: x11+x25-y11_25 <=1 
C412: x11+x26 <=1 
C413: x11+x28-y11_28 <=1 
C414: x11+x29 <=1 
C415: x11+x31 <=1 
C416: x11+x33 <=1 
C417: x11+x36-y11_36 <=1 
C418: x11+x37-y11_37 <=1 
C419: x11+x38 <=1 
C420: x11+x39 <=1 
C421: x11+x44-y11_44 <=1 
C422: x11+x49 <=1 
C423: x11+x50 <=1 
C424: x11+x51 <=1 
C425: x11+x52 <=1 
C426: x11+x55 <=1 
C427: x11+x56-y11_56 <=1 
C428: x11+x57-y11_57 <=1 
C429: x11+x59-y11_59 <=1 
C430: x11+x61 <=1 
C431: x11+x64 <=1 
C432: x11+x65-y11_65 <=1 
C433: x11+x66-y11_66 <=1 
C434: x12+x13 <=1 
C435: x12+x14 <=1 
C436: x12+x15 <=1 
C437: x12+x16-y12_16 <=1 
C438: x12+x17-y12_17 <=1 
C439: x12+x19 <=1 
C440: x12+x20 <=1 
C441: x12+x22 <=1 
C442: x12+x23 <=1 
C443: x12+x25-y12_25 <=1 
C444: x12+x26 <=1 
C445: x12+x28 <=1 
C446: x12+x31 <=1 
C447: x12+x35-y12_35 <=1 
C448: x12+x36 <=1 
C449: x12+x37-y12_37 <=1 
C450: x12+x38 <=1 
C451: x12+x39-y12_39 <=1 
C452: x12+x41-y12_41 <=1 
C453: x12+x43 <=1 
C454: x12+x45-y12_45 <=1 
C455: x12+x47-y12_47 <=1 
C456: x12+x48 <=1 
C457: x12+x50 <=1 
C458: x12+x52-y12_52 <=1 
C459: x12+x53-y12_53 <=1 
C460: x12+x58-y12_58 <=1 
C461: x12+x60-y12_60 <=1 
C462: x12+x64 <=1 
C463: x13+x14-y13_14 <=1 
C464: x13+x15-y13_15 <=1 
C465: x13+x17-y13_17 <=1 
C466: x13+x18-y13_18 <=1 
C467: x13+x21 <=1 
C468: x13+x22-y13_22 <=1 
C469: x13+x25 <=1 
C470: x13+x27 <=1 
C471: x13+x30-y13_30 <=1 
C472: x13+x32 <=1 
C473: x13+x33 <=1 
C474: x13+x35-y13_35 <=1 
C475: x13+x36-y13_36 <=1 
C476: x13+x38 <=1 
C477: x13+x40 <=1 
C478: x13+x42-y13_42 <=1 
C479: x13+x43 <=1 
C480: x13+x44-y13_44 <=1 
C481: x13+x45-y13_45 <=1 
C482: x13+x48-y13_48 <=1 
C483: x13+x50-y13_50 <=1 
C484: x13+x51-y13_51 <=1 
C485: x13+x52 <=1 
C486: x13+x53-y13_53 <=1 
C487: x13+x54-y13_54 <=1 
C488: x13+x55 <=1 
C489: x13+x56 <=1 
C490: x13+x57-y13_57 <=1 
C491: x13+x60 <=1 
C492: x13+x61 <=1 
C493: x13+x63-y13_63 <=1 
C494: x13+x64 <=1 
C495: x13+x65-y13_65 <=1 
C496: x13+x66 <=1 
C497: x14+x15 <=1 
C498: x14+x18-y14_18 <=1 
C499: x14+x20-y14_20 <=1 
C500: x14+x22 <=1 
C501: x14+x23-y14_23 <=1 
C502: x14+x26-y14_26 <=1 
C503: x14+x27 <=1 
C504: x14+x30 <=1 
C505: x14+x33 <=1 
C506: x14+x39-y14_39 <=1 
C507: x14+x42 <=1 
C508: x14+x43 <=1 
C509: x14+x44-y14_44 <=1 
C510: x14+x45 <=1 
C511: x14+x46 <=1 
C512: x14+x47-y14_47 <=1 
C513: x14+x48 <=1 
C514: x14+x50-y14_50 <=1 
C515: x14+x53 <=1 
C516: x14+x55-y14_55 <=1 
C517: x14+x56 <=1 
C518: x14+x59 <=1 
C519: x14+x60 <=1 
C520: x14+x62-y14_62 <=1 
C521: x14+x64 <=1 
C522: x14+x65-y14_65 <=1 
C523: x14+x66 <=1 
C524: x15+x16-y15_16 <=1 
C525: x15+x18-y15_18 <=1 
C526: x15+x19-y15_19 <=1 
C527: x15+x21 <=1 
C528: x15+x22-y15_22 <=1 
C529: x15+x24 <=1 
C530: x15+x27 <=1 
C531: x15+x30 <=1 
C532: x15+x32 <=1 
C533: x15+x33-y15_33 <=1 
C534: x15+x35 <=1 
C535: x15+x36-y15_36 <=1 
C536: x15+x37 <=1 
C537: x15+x38-y15_38 <=1 
C538: x15+x39 <=1 
C539: x15+x40 <=1 
C540: x15+x42-y15_42 <=1 
C541: x15+x43 <=1 
C542: x15+x44 <=1 
C543: x15+x46 <=1 
C544: x15+x47-y15_47 <=1 
C545: x15+x51-y15_51 <=1 
C546: x15+x52-y15_52 <=1 
C547: x15+x53 <=1 
C548: x15+x54 <=1 
C549: x15+x56 <=1 
C550: x15+x57-y15_57 <=1 
C551: x15+x58-y15_58 <=1 
C552: x15+x60-y15_60 <=1 
C553: x15+x62-y15_62 <=1 
C554: x15+x64 <=1 
C555: x15+x65-y15_65 <=1 
C556: x15+x66 <=1 
C557: x16+x18 <=1 
C558: x16+x21-y16_21 <=1 
C559: x16+x24-y16_24 <=1 
C560: x16+x25 <=1 
C561: x16+x27-y16_27 <=1 
C562: x16+x29-y16_29 <=1 
C563: x16+x33-y16_33 <=1 
C564: x16+x34 <=1 
C565: x16+x35-y16_35 <=1 
C566: x16+x36-y16_36 <=1 
C567: x16+x37 <=1 
C568: x16+x38 <=1 
C569: x16+x39-y16_39 <=1 
C570: x16+x41-y16_41 <=1 
C571: x16+x43-y16_43 <=1 
C572: x16+x45 <=1 
C573: x16+x46 <=1 
C574: x16+x47-y16_47 <=1 
C575: x16+x48 <=1 
C576: x16+x49 <=1 
C577: x16+x52 <=1 
C578: x16+x53 <=1 
C579: x16+x55 <=1 
C580: x16+x57-y16_57 <=1 
C581: x16+x59-y16_59 <=1 
C582: x16+x60-y16_60 <=1 
C583: x16+x61-y16_61 <=1 
C584: x16+x63-y16_63 <=1 
C585: x16+x64-y16_64 <=1 
C586: x16+x65-y16_65 <=1 
C587: x16+x66-y16_66 <=1 
C588: x17+x18 <=1 
C589: x17+x19 <=1 
C590: x17+x20 <=1 
C591: x17+x23-y17_23 <=1 
C592: x17+x24-y17_24 <=1 
C593: x17+x25 <=1 
C594: x17+x28 <=1 
C595: x17+x29-y17_29 <=1 
C596: x17+x31-y17_31 <=1 
C597: x17+x34-y17_34 <=1 
C598: x17+x37 <=1 
C599: x17+x38 <=1 
C600: x17+x41 <=1 
C601: x17+x42 <=1 
C602: x17+x43-y17_43 <=1 
C603: x17+x45-y17_45 <=1 
C604: x17+x46 <=1 
C605: x17+x47 <=1 
C606: x17+x48-y17_48 <=1 
C607: x17+x50 <=1 
C608: x17+x51 <=1 
C609: x17+x53 <=1 
C610: x17+x58 <=1 
C611: x17+x59-y17_59 <=1 
C612: x17+x60 <=1 
C613: x17+x61 <=1 
C614: x17+x63 <=1 
C615: x17+x65-y17_65 <=1 
C616: x17+x66 <=1 
C617: x18+x19 <=1 
C618: x18+x20 <=1 
C619: x18+x22-y18_22 <=1 
C620: x18+x24 <=1 
C621: x18+x28 <=1 
C622: x18+x29-y18_29 <=1 
C623: x18+x30 <=1 
C624: x18+x32 <=1 
C625: x18+x33-y18_33 <=1 
C626: x18+x34 <=1 
C627: x18+x35 <=1 
C628: x18+x36-y18_36 <=1 
C629: x18+x38-y18_38 <=1 
C630: x18+x46 <=1 
C631: x18+x48-y18_48 <=1 
C632: x18+x49-y18_49 <=1 
C633: x18+x51 <=1 
C634: x18+x52-y18_52 <=1 
C635: x18+x53-y18_53 <=1 
C636: x18+x56-y18_56 <=1 
C637: x18+x60 <=1 
C638: x18+x63 <=1 
C639: x18+x66-y18_66 <=1 
C640: x19+x20 <=1 
C641: x19+x22-y19_22 <=1 
C642: x19+x23-y19_23 <=1 
C643: x19+x24-y19_24 <=1 
C644: x19+x27 <=1 
C645: x19+x28 <=1 
C646: x19+x29-y19_29 <=1 
C647: x19+x30 <=1 
C648: x19+x33-y19_33 <=1 
C649: x19+x34-y19_34 <=1 
C650: x19+x35 <=1 
C651: x19+x37 <=1 
C652: x19+x40 <=1 
C653: x19+x42-y19_42 <=1 
C654: x19+x44-y19_44 <=1 
C655: x19+x48 <=1 
C656: x19+x50-y19_50 <=1 
C657: x19+x52 <=1 
C658: x19+x53-y19_53 <=1 
C659: x19+x54-y19_54 <=1 
C660: x19+x56-y19_56 <=1 
C661: x19+x57 <=1 
C662: x19+x59-y19_59 <=1 
C663: x19+x60 <=1 
C664: x19+x61 <=1 
C665: x19+x62-y19_62 <=1 
C666: x19+x64 <=1 
C667: x19+x65-y19_65 <=1 
C668: x19+x66-y19_66 <=1 
C669: x20+x22 <=1 
C670: x20+x26 <=1 
C671: x20+x27 <=1 
C672: x20+x29 <=1 
C673: x20+x30-y20_30 <=1 
C674: x20+x31 <=1 
C675: x20+x32-y20_32 <=1 
C676: x20+x33-y20_33 <=1 
C677: x20+x37-y20_37 <=1 
C678: x20+x38-y20_38 <=1 
C679: x20+x40 <=1 
C680: x20+x42 <=1 
C681: x20+x43 <=1 
C682: x20+x44 <=1 
C683: x20+x50-y20_50 <=1 
C684: x20+x52-y20_52 <=1 
C685: x20+x53-y20_53 <=1 
C686: x20+x54 <=1 
C687: x20+x55-y20_55 <=1 
C688: x20+x56 <=1 
C689: x20+x58 <=1 
C690: x20+x59-y20_59 <=1 
C691: x20+x62 <=1 
C692: x20+x63 <=1 
C693: x20+x64-y20_64 <=1 
C694: x20+x65 <=1 
C695: x21+x22 <=1 
C696: x21+x26-y21_26 <=1 
C697: x21+x27 <=1 
C698: x21+x30-y21_30 <=1 
C699: x21+x31-y21_31 <=1 
C700: x21+x35 <=1 
C701: x21+x36 <=1 
C702: x21+x37 <=1 
C703: x21+x38 <=1 
C704: x21+x39 <=1 
C705: x21+x40-y21_40 <=1 
C706: x21+x42 <=1 
C707: x21+x45-y21_45 <=1 
C708: x21+x46 <=1 
C709: x21+x47 <=1 
C710: x21+x48-y21_48 <=1 
C711: x21+x49 <=1 
C712: x21+x50 <=1 
C713: x21+x52 <=1 
C714: x21+x53 <=1 
C715: x21+x54-y21_54 <=1 
C716: x21+x55-y21_55 <=1 
C717: x21+x56-y21_56 <=1 
C718: x21+x57-y21_57 <=1 
C719: x21+x58 <=1 
C720: x21+x63-y21_63 <=1 
C721: x21+x64-y21_64 <=1 
C722: x22+x24-y22_24 <=1 
C723: x22+x25-y22_25 <=1 
C724: x22+x28-y22_28 <=1 
C725: x22+x30-y22_30 <=1 
C726: x22+x31 <=1 
C727: x22+x32-y22_32 <=1 
C728: x22+x34-y22_34 <=1 
C729: x22+x35-y22_35 <=1 
C730: x22+x37 <=1 
C731: x22+x38-y22_38 <=1 
C732: x22+x39-y22_39 <=1 
C733: x22+x41 <=1 
C734: x22+x43-y22_43 <=1 
C735: x22+x44 <=1 
C736: x22+x45 <=1 
C737: x22+x46-y22_46 <=1 
C738: x22+x50 <=1 
C739: x22+x52-y22_52 <=1 
C740: x22+x54 <=1 
C741: x22+x57 <=1 
C742: x22+x58-y22_58 <=1 
C743: x22+x60-y22_60 <=1 
C744: x22+x61 <=1 
C745: x22+x63 <=1 
C746: x22+x65 <=1 
C747: x22+x66 <=1 
C748: x23+x27 <=1 
C749: x23+x30-y23_30 <=1 
C750: x23+x31 <=1 
C751: x23+x33 <=1 
C752: x23+x34-y23_34 <=1 
C753: x23+x35 <=1 
C754: x23+x36-y23_36 <=1 
C755: x23+x37 <=1 
C756: x23+x38 <=1 
C757: x23+x39-y23_39 <=1 
C758: x23+x40-y23_40 <=1 
C759: x23+x42 <=1 
C760: x23+x43 <=1 
C761: x23+x44-y23_44 <=1 
C762: x23+x45-y23_45 <=1 
C763: x23+x46-y23_46 <=1 
C764: x23+x47 <=1 
C765: x23+x49 <=1 
C766: x23+x52 <=1 
C767: x23+x53 <=1 
C768: x23+x54-y23_54 <=1 
C769: x23+x55 <=1 
C770: x23+x57 <=1 
C771: x23+x59 <=1 
C772: x23+x60-y23_60 <=1 
C773: x23+x61-y23_61 <=1 
C774: x23+x62 <=1 
C775: x23+x63-y23_63 <=1 
C776: x23+x66-y23_66 <=1 
C777: x24+x26 <=1 
C778: x24+x28 <=1 
C779: x24+x30-y24_30 <=1 
C780: x24+x31-y24_31 <=1 
C781: x24+x32 <=1 
C782: x24+x34-y24_34 <=1 
C783: x24+x35-y24_35 <=1 
C784: x24+x36 <=1 
C785: x24+x38-y24_38 <=1 
C786: x24+x39-y24_39 <=1 
C787: x24+x41 <=1 
C788: x24+x43-y24_43 <=1 
C789: x24+x45 <=1 
C790: x24+x46-y24_46 <=1 
C791: x24+x52 <=1 
C792: x24+x53 <=1 
C793: x24+x54 <=1 
C794: x24+x55 <=1 
C795: x24+x60-y24_60 <=1 
C796: x24+x61 <=1 
C797: x24+x63-y24_63 <=1 
C798: x24+x66-y24_66 <=1 
C799: x25+x26-y25_26 <=1 
C800: x25+x28-y25_28 <=1 
C801: x25+x30-y25_30 <=1 
C802: x25+x31-y25_31 <=1 
C803: x25+x32 <=1 
C804: x25+x33 <=1 
C805: x25+x38 <=1 
C806: x25+x39-y25_39 <=1 
C807: x25+x40 <=1 
C808: x25+x42 <=1 
C809: x25+x43 <=1 
C810: x25+x45 <=1 
C811: x25+x47 <=1 
C812: x25+x49 <=1 
C813: x25+x50-y25_50 <=1 
C814: x25+x51-y25_51 <=1 
C815: x25+x54-y25_54 <=1 
C816: x25+x55-y25_55 <=1 
C817: x25+x56-y25_56 <=1 
C818: x25+x57 <=1 
C819: x25+x58-y25_58 <=1 
C820: x25+x59-y25_59 <=1 
C821: x25+x60 <=1 
C822: x25+x63-y25_63 <=1 
C823: x25+x64-y25_64 <=1 
C824: x26+x30 <=1 
C825: x26+x31 <=1 
C826: x26+x33-y26_33 <=1 
C827: x26+x34-y26_34 <=1 
C828: x26+x37-y26_37 <=1 
C829: x26+x38-y26_38 <=1 
C830: x26+x39-y26_39 <=1 
C831: x26+x41-y26_41 <=1 
C832: x26+x42 <=1 
C833: x26+x43 <=1 
C834: x26+x44 <=1 
C835: x26+x45-y26_45 <=1 
C836: x26+x48-y26_48 <=1 
C837: x26+x49-y26_49 <=1 
C838: x26+x50 <=1 
C839: x26+x52 <=1 
C840: x26+x53 <=1 
C841: x26+x54 <=1 
C842: x26+x55 <=1 
C843: x26+x56-y26_56 <=1 
C844: x26+x59 <=1 
C845: x26+x61 <=1 
C846: x26+x62 <=1 
C847: x26+x63 <=1 
C848: x26+x64 <=1 
C849: x26+x66-y26_66 <=1 
C850: x27+x29-y27_29 <=1 
C851: x27+x30 <=1 
C852: x27+x32 <=1 
C853: x27+x34 <=1 
C854: x27+x35 <=1 
C855: x27+x36-y27_36 <=1 
C856: x27+x37 <=1 
C857: x27+x43 <=1 
C858: x27+x44-y27_44 <=1 
C859: x27+x47 <=1 
C860: x27+x51-y27_51 <=1 
C861: x27+x52-y27_52 <=1 
C862: x27+x58 <=1 
C863: x27+x59-y27_59 <=1 
C864: x27+x60-y27_60 <=1 
C865: x27+x61-y27_61 <=1 
C866: x27+x63-y27_63 <=1 
C867: x27+x64 <=1 
C868: x27+x66-y27_66 <=1 
C869: x28+x29 <=1 
C870: x28+x31 <=1 
C871: x28+x34-y28_34 <=1 
C872: x28+x36-y28_36 <=1 
C873: x28+x40 <=1 
C874: x28+x41-y28_41 <=1 
C875: x28+x42 <=1 
C876: x28+x43-y28_43 <=1 
C877: x28+x44 <=1 
C878: x28+x47 <=1 
C879: x28+x49 <=1 
C880: x28+x52-y28_52 <=1 
C881: x28+x53 <=1 
C882: x28+x54-y28_54 <=1 
C883: x28+x55-y28_55 <=1 
C884: x28+x58-y28_58 <=1 
C885: x28+x61-y28_61 <=1 
C886: x28+x62-y28_62 <=1 
C887: x28+x64 <=1 
C888: x28+x66-y28_66 <=1 
C889: x29+x30-y29_30 <=1 
C890: x29+x31 <=1 
C891: x29+x32-y29_32 <=1 
C892: x29+x33-y29_33 <=1 
C893: x29+x35-y29_35 <=1 
C894: x29+x41-y29_41 <=1 
C895: x29+x42 <=1 
C896: x29+x43 <=1 
C897: x29+x46 <=1 
C898: x29+x49 <=1 
C899: x29+x50-y29_50 <=1 
C900: x29+x51-y29_51 <=1 
C901: x29+x52 <=1 
C902: x29+x54-y29_54 <=1 
C903: x29+x55-y29_55 <=1 
C904: x29+x57 <=1 
C905: x29+x58 <=1 
C906: x29+x66 <=1 
C907: x30+x31-y30_31 <=1 
C908: x30+x33-y30_33 <=1 
C909: x30+x36 <=1 
C910: x30+x37-y30_37 <=1 
C911: x30+x39 <=1 
C912: x30+x40 <=1 
C913: x30+x41-y30_41 <=1 
C914: x30+x42 <=1 
C915: x30+x43 <=1 
C916: x30+x46 <=1 
C917: x30+x47 <=1 
C918: x30+x50-y30_50 <=1 
C919: x30+x51 <=1 
C920: x30+x52-y30_52 <=1 
C921: x30+x53 <=1 
C922: x30+x55 <=1 
C923: x30+x56 <=1 
C924: x30+x59 <=1 
C925: x30+x61 <=1 
C926: x30+x62 <=1 
C927: x30+x63-y30_63 <=1 
C928: x30+x64-y30_64 <=1 
C929: x30+x65 <=1 
C930: x30+x66-y30_66 <=1 
C931: x31+x32 <=1 
C932: x31+x33-y31_33 <=1 
C933: x31+x34 <=1 
C934: x31+x36 <=1 
C935: x31+x40 <=1 
C936: x31+x45 <=1 
C937: x31+x46 <=1 
C938: x31+x47 <=1 
C939: x31+x50-y31_50 <=1 
C940: x31+x51 <=1 
C941: x31+x53-y31_53 <=1 
C942: x31+x54 <=1 
C943: x31+x55 <=1 
C944: x31+x61 <=1 
C945: x31+x62 <=1 
C946: x31+x63 <=1 
C947: x31+x65 <=1 
C948: x31+x66-y31_66 <=1 
C949: x32+x33 <=1 
C950: x32+x34 <=1 
C951: x32+x35 <=1 
C952: x32+x36-y32_36 <=1 
C953: x32+x37 <=1 
C954: x32+x42 <=1 
C955: x32+x43 <=1 
C956: x32+x44 <=1 
C957: x32+x45 <=1 
C958: x32+x47 <=1 
C959: x32+x48-y32_48 <=1 
C960: x32+x50-y32_50 <=1 
C961: x32+x51 <=1 
C962: x32+x52-y32_52 <=1 
C963: x32+x53-y32_53 <=1 
C964: x32+x54-y32_54 <=1 
C965: x32+x62-y32_62 <=1 
C966: x32+x64-y32_64 <=1 
C967: x32+x65-y32_65 <=1 
C968: x33+x36-y33_36 <=1 
C969: x33+x38-y33_38 <=1 
C970: x33+x40 <=1 
C971: x33+x42-y33_42 <=1 
C972: x33+x43 <=1 
C973: x33+x44 <=1 
C974: x33+x45 <=1 
C975: x33+x46-y33_46 <=1 
C976: x33+x47 <=1 
C977: x33+x48-y33_48 <=1 
C978: x33+x50-y33_50 <=1 
C979: x33+x53 <=1 
C980: x33+x58 <=1 
C981: x33+x61-y33_61 <=1 
C982: x33+x64 <=1 
C983: x33+x65 <=1 
C984: x33+x66-y33_66 <=1 
C985: x34+x35 <=1 
C986: x34+x36 <=1 
C987: x34+x37 <=1 
C988: x34+x41 <=1 
C989: x34+x43 <=1 
C990: x34+x44-y34_44 <=1 
C991: x34+x45 <=1 
C992: x34+x46-y34_46 <=1 
C993: x34+x47 <=1 
C994: x34+x49-y34_49 <=1 
C995: x34+x51 <=1 
C996: x34+x54 <=1 
C997: x34+x59 <=1 
C998: x34+x60 <=1 
C999: x34+x61 <=1 
C1000: x34+x63 <=1 
C1001: x34+x65 <=1 
C1002: x34+x66 <=1 
C1003: x35+x36-y35_36 <=1 
C1004: x35+x38-y35_38 <=1 
C1005: x35+x39-y35_39 <=1 
C1006: x35+x41-y35_41 <=1 
C1007: x35+x42-y35_42 <=1 
C1008: x35+x45-y35_45 <=1 
C1009: x35+x46 <=1 
C1010: x35+x50 <=1 
C1011: x35+x52 <=1 
C1012: x35+x54 <=1 
C1013: x35+x59 <=1 
C1014: x35+x60 <=1 
C1015: x35+x64-y35_64 <=1 
C1016: x36+x37-y36_37 <=1 
C1017: x36+x38-y36_38 <=1 
C1018: x36+x40-y36_40 <=1 
C1019: x36+x41 <=1 
C1020: x36+x43 <=1 
C1021: x36+x46-y36_46 <=1 
C1022: x36+x51-y36_51 <=1 
C1023: x36+x53-y36_53 <=1 
C1024: x36+x55-y36_55 <=1 
C1025: x36+x60-y36_60 <=1 
C1026: x36+x64 <=1 
C1027: x36+x65 <=1 
C1028: x36+x66-y36_66 <=1 
C1029: x37+x38-y37_38 <=1 
C1030: x37+x39 <=1 
C1031: x37+x40 <=1 
C1032: x37+x41-y37_41 <=1 
C1033: x37+x42 <=1 
C1034: x37+x43-y37_43 <=1 
C1035: x37+x44-y37_44 <=1 
C1036: x37+x45 <=1 
C1037: x37+x46 <=1 
C1038: x37+x49-y37_49 <=1 
C1039: x37+x50-y37_50 <=1 
C1040: x37+x51-y37_51 <=1 
C1041: x37+x55-y37_55 <=1 
C1042: x37+x56 <=1 
C1043: x37+x57-y37_57 <=1 
C1044: x37+x58 <=1 
C1045: x37+x59-y37_59 <=1 
C1046: x37+x60 <=1 
C1047: x37+x61 <=1 
C1048: x37+x64-y37_64 <=1 
C1049: x38+x41-y38_41 <=1 
C1050: x38+x43-y38_43 <=1 
C1051: x38+x44 <=1 
C1052: x38+x45-y38_45 <=1 
C1053: x38+x46-y38_46 <=1 
C1054: x38+x47 <=1 
C1055: x38+x49-y38_49 <=1 
C1056: x38+x51 <=1 
C1057: x38+x53-y38_53 <=1 
C1058: x38+x54-y38_54 <=1 
C1059: x38+x55-y38_55 <=1 
C1060: x38+x58 <=1 
C1061: x38+x60 <=1 
C1062: x38+x61 <=1 
C1063: x38+x63 <=1 
C1064: x38+x64 <=1 
C1065: x38+x65 <=1 
C1066: x38+x66 <=1 
C1067: x39+x42-y39_42 <=1 
C1068: x39+x43 <=1 
C1069: x39+x44-y39_44 <=1 
C1070: x39+x45-y39_45 <=1 
C1071: x39+x46 <=1 
C1072: x39+x47-y39_47 <=1 
C1073: x39+x48-y39_48 <=1 
C1074: x39+x49 <=1 
C1075: x39+x52 <=1 
C1076: x39+x53 <=1 
C1077: x39+x55 <=1 
C1078: x39+x57 <=1 
C1079: x39+x58-y39_58 <=1 
C1080: x39+x59 <=1 
C1081: x39+x60 <=1 
C1082: x39+x62-y39_62 <=1 
C1083: x39+x63-y39_63 <=1 
C1084: x39+x64-y39_64 <=1 
C1085: x39+x66-y39_66 <=1 
C1086: x40+x42-y40_42 <=1 
C1087: x40+x43 <=1 
C1088: x40+x44-y40_44 <=1 
C1089: x40+x47 <=1 
C1090: x40+x49 <=1 
C1091: x40+x52 <=1 
C1092: x40+x53-y40_53 <=1 
C1093: x40+x54 <=1 
C1094: x40+x55-y40_55 <=1 
C1095: x40+x56-y40_56 <=1 
C1096: x40+x57-y40_57 <=1 
C1097: x40+x59-y40_59 <=1 
C1098: x40+x62-y40_62 <=1 
C1099: x40+x63-y40_63 <=1 
C1100: x40+x65-y40_65 <=1 
C1101: x40+x66-y40_66 <=1 
C1102: x41+x42 <=1 
C1103: x41+x45-y41_45 <=1 
C1104: x41+x47-y41_47 <=1 
C1105: x41+x49-y41_49 <=1 
C1106: x41+x52-y41_52 <=1 
C1107: x41+x53 <=1 
C1108: x41+x54 <=1 
C1109: x41+x56-y41_56 <=1 
C1110: x41+x57 <=1 
C1111: x41+x58 <=1 
C1112: x41+x62-y41_62 <=1 
C1113: x41+x63-y41_63 <=1 
C1114: x41+x64 <=1 
C1115: x41+x65-y41_65 <=1 
C1116: x41+x66 <=1 
C1117: x42+x43 <=1 
C1118: x42+x45 <=1 
C1119: x42+x46 <=1 
C1120: x42+x48-y42_48 <=1 
C1121: x42+x49 <=1 
C1122: x42+x50 <=1 
C1123: x42+x51-y42_51 <=1 
C1124: x42+x52 <=1 
C1125: x42+x54-y42_54 <=1 
C1126: x42+x55-y42_55 <=1 
C1127: x42+x56 <=1 
C1128: x42+x57 <=1 
C1129: x42+x60 <=1 
C1130: x42+x61-y42_61 <=1 
C1131: x42+x62-y42_62 <=1 
C1132: x42+x63 <=1 
C1133: x42+x64-y42_64 <=1 
C1134: x42+x65-y42_65 <=1 
C1135: x42+x66 <=1 
C1136: x43+x46 <=1 
C1137: x43+x47-y43_47 <=1 
C1138: x43+x49 <=1 
C1139: x43+x50 <=1 
C1140: x43+x52 <=1 
C1141: x43+x53 <=1 
C1142: x43+x54 <=1 
C1143: x43+x55-y43_55 <=1 
C1144: x43+x56-y43_56 <=1 
C1145: x43+x58-y43_58 <=1 
C1146: x43+x59-y43_59 <=1 
C1147: x43+x61-y43_61 <=1 
C1148: x43+x65-y43_65 <=1 
C1149: x43+x66 <=1 
C1150: x44+x45 <=1 
C1151: x44+x48 <=1 
C1152: x44+x49 <=1 
C1153: x44+x50 <=1 
C1154: x44+x51-y44_51 <=1 
C1155: x44+x52 <=1 
C1156: x44+x58 <=1 
C1157: x44+x59-y44_59 <=1 
C1158: x44+x63 <=1 
C1159: x44+x64 <=1 
C1160: x44+x66-y44_66 <=1 
C1161: x45+x46 <=1 
C1162: x45+x47-y45_47 <=1 
C1163: x45+x48 <=1 
C1164: x45+x49-y45_49 <=1 
C1165: x45+x50 <=1 
C1166: x45+x53 <=1 
C1167: x45+x54 <=1 
C1168: x45+x55-y45_55 <=1 
C1169: x45+x59 <=1 
C1170: x45+x62-y45_62 <=1 
C1171: x45+x64 <=1 
C1172: x45+x65-y45_65 <=1 
C1173: x46+x48-y46_48 <=1 
C1174: x46+x51 <=1 
C1175: x46+x52 <=1 
C1176: x46+x56 <=1 
C1177: x46+x57 <=1 
C1178: x46+x61-y46_61 <=1 
C1179: x47+x49-y47_49 <=1 
C1180: x47+x54 <=1 
C1181: x47+x55-y47_55 <=1 
C1182: x47+x56 <=1 
C1183: x47+x58 <=1 
C1184: x47+x61 <=1 
C1185: x47+x63 <=1 
C1186: x47+x65 <=1 
C1187: x47+x66-y47_66 <=1 
C1188: x48+x49 <=1 
C1189: x48+x50-y48_50 <=1 
C1190: x48+x52-y48_52 <=1 
C1191: x48+x54-y48_54 <=1 
C1192: x48+x56 <=1 
C1193: x48+x59-y48_59 <=1 
C1194: x48+x62-y48_62 <=1 
C1195: x48+x63-y48_63 <=1 
C1196: x48+x66 <=1 
C1197: x49+x50 <=1 
C1198: x49+x53-y49_53 <=1 
C1199: x49+x54-y49_54 <=1 
C1200: x49+x58-y49_58 <=1 
C1201: x49+x59-y49_59 <=1 
C1202: x49+x60-y49_60 <=1 
C1203: x49+x62 <=1 
C1204: x49+x63-y49_63 <=1 
C1205: x49+x65 <=1 
C1206: x49+x66-y49_66 <=1 
C1207: x50+x51-y50_51 <=1 
C1208: x50+x52-y50_52 <=1 
C1209: x50+x53-y50_53 <=1 
C1210: x50+x54-y50_54 <=1 
C1211: x50+x55-y50_55 <=1 
C1212: x50+x56 <=1 
C1213: x50+x57-y50_57 <=1 
C1214: x50+x58 <=1 
C1215: x50+x59 <=1 
C1216: x50+x60 <=1 
C1217: x50+x61 <=1 
C1218: x50+x64-y50_64 <=1 
C1219: x50+x66 <=1 
C1220: x51+x53 <=1 
C1221: x51+x57-y51_57 <=1 
C1222: x51+x58-y51_58 <=1 
C1223: x51+x59 <=1 
C1224: x51+x60 <=1 
C1225: x51+x61 <=1 
C1226: x51+x62 <=1 
C1227: x51+x64-y51_64 <=1 
C1228: x51+x65 <=1 
C1229: x52+x54-y52_54 <=1 
C1230: x52+x55 <=1 
C1231: x52+x56-y52_56 <=1 
C1232: x52+x57 <=1 
C1233: x52+x64-y52_64 <=1 
C1234: x53+x55 <=1 
C1235: x53+x56-y53_56 <=1 
C1236: x53+x57-y53_57 <=1 
C1237: x53+x58-y53_58 <=1 
C1238: x53+x59-y53_59 <=1 
C1239: x53+x60-y53_60 <=1 
C1240: x53+x61 <=1 
C1241: x53+x62 <=1 
C1242: x53+x63-y53_63 <=1 
C1243: x53+x64 <=1 
C1244: x54+x55-y54_55 <=1 
C1245: x54+x56 <=1 
C1246: x54+x57-y54_57 <=1 
C1247: x54+x58 <=1 
C1248: x54+x62 <=1 
C1249: x54+x63 <=1 
C1250: x54+x65 <=1 
C1251: x54+x66 <=1 
C1252: x55+x56 <=1 
C1253: x55+x59 <=1 
C1254: x55+x60 <=1 
C1255: x55+x61 <=1 
C1256: x55+x62-y55_62 <=1 
C1257: x55+x63 <=1 
C1258: x55+x64-y55_64 <=1 
C1259: x56+x58-y56_58 <=1 
C1260: x56+x59-y56_59 <=1 
C1261: x56+x60-y56_60 <=1 
C1262: x56+x61-y56_61 <=1 
C1263: x56+x64 <=1 
C1264: x56+x65 <=1 
C1265: x56+x66-y56_66 <=1 
C1266: x57+x58-y57_58 <=1 
C1267: x57+x60 <=1 
C1268: x57+x61 <=1 
C1269: x57+x62 <=1 
C1270: x57+x63 <=1 
C1271: x57+x64-y57_64 <=1 
C1272: x57+x65-y57_65 <=1 
C1273: x57+x66 <=1 
C1274: x58+x59 <=1 
C1275: x58+x64-y58_64 <=1 
C1276: x58+x65 <=1 
C1277: x58+x66 <=1 
C1278: x59+x60 <=1 
C1279: x59+x61-y59_61 <=1 
C1280: x59+x62-y59_62 <=1 
C1281: x59+x64 <=1 
C1282: x59+x65 <=1 
C1283: x60+x61-y60_61 <=1 
C1284: x60+x62 <=1 
C1285: x60+x64-y60_64 <=1 
C1286: x60+x66-y60_66 <=1 
C1287: x61+x62 <=1 
C1288: x61+x63 <=1 
C1289: x61+x64 <=1 
C1290: x61+x66 <=1 
C1291: x62+x64-y62_64 <=1 
C1292: x63+x64-y63_64 <=1 
C1293: x63+x66-y63_66 <=1 
C1294: x64+x66 <=1 

binary
x0
x1
x2
x3
x4
x5
x6
x7
x8
x9
x10
x11
x12
x13
x14
x15
x16
x17
x18
x19
x20
x21
x22
x23
x24
x25
x26
x27
x28
x29
x30
x31
x32
x33
x34
x35
x36
x37
x38
x39
x40
x41
x42
x43
x44
x45
x46
x47
x48
x49
x50
x51
x52
x53
x54
x55
x56
x57
x58
x59
x60
x61
x62
x63
x64
x65
x66
